20	5
0	2	2	1
1	1	16
2	2	7	15
3	1	8
4	1	12
5	2	11	20
6	2	19	11
7	1	9
8	1	13
9	0
10	1	6
11	0
12	1	18
13	1	9
14	1	7
15	1	3
16	1	17
17	2	14	3
18	1	21
19	1	21
20	1	21
21	0
0	0	0	0	0	0	0
1	8	4	4	3	3	1
2	9	1	3	2	5	3
3	4	5	0	1	5	5
4	5	5	0	4	0	2
5	1	4	4	0	3	1
6	8	5	0	5	1	1
7	10	5	1	4	2	3
8	7	1	4	2	2	1
9	10	0	1	0	1	0
10	8	1	1	2	0	4
11	5	5	2	3	3	2
12	2	0	3	4	0	0
13	3	1	4	1	3	3
14	2	3	3	3	3	5
15	3	0	0	5	4	0
16	10	0	0	3	4	0
17	8	3	2	1	3	1
18	6	0	2	0	0	5
19	3	5	0	0	1	4
20	8	2	3	0	0	1
21	0	0	0	0	0	0
5	5	5	5	5
